NAME: TestSpectrumMSP
PRECURSORMZ: 100.1
SMILES: CCO
INCHIKEY: LFQSCWFLJHTTHZ-UHFFFAOYSA-N
Num Peaks: 2
31.0184	100
45.0335	200
