BEGIN IONS
TITLE=TestSpectrumMGF
PEPMASS=100.1
SMILES=CCO
INCHIKEY=LFQSCWFLJHTTHZ-UHFFFAOYSA-N
31.0184 100
45.0335 200
END IONS
